p wcnf 140 1200
7 -134 -139 0
3 -133 -136 0
2 -128 -140 0
9 -128 136 0
7 -128 140 0
5 -126 -136 0
4 -126 -131 0
8 -126 135 0
9 -126 137 0
4 -125 -134 0
6 -122 -125 0
1 -122 130 0
6 -121 130 0
6 -118 -131 0
8 -118 126 0
8 -117 -137 0
5 -117 -128 0
5 -117 121 0
1 -115 135 0
3 -115 137 0
3 -114 116 0
1 -114 138 0
8 -113 138 0
3 -112 128 0
2 -111 -140 0
8 -110 123 0
4 -110 128 0
5 -108 -111 0
1 -107 -134 0
5 -107 -130 0
7 -107 -126 0
7 -107 -110 0
7 -107 114 0
7 -107 120 0
6 -107 124 0
4 -106 -116 0
3 -106 107 0
9 -104 105 0
2 -104 137 0
2 -103 -138 0
3 -103 -131 0
6 -103 -119 0
2 -103 -114 0
8 -101 113 0
3 -101 120 0
9 -101 123 0
6 -101 131 0
6 -101 140 0
4 -100 -117 0
6 -100 116 0
9 -99 -115 0
6 -99 -110 0
6 -99 -104 0
7 -99 115 0
8 -97 133 0
7 -97 139 0
5 -96 -127 0
2 -96 -114 0
2 -96 109 0
5 -96 111 0
6 -96 131 0
8 -96 136 0
2 -93 -110 0
3 -93 -108 0
5 -92 118 0
7 -92 125 0
6 -91 122 0
7 -91 125 0
6 -90 -130 0
6 -90 100 0
8 -90 112 0
8 -89 96 0
3 -88 -102 0
9 -88 99 0
5 -88 138 0
4 -88 140 0
9 -87 -137 0
1 -87 -106 0
10 -86 -138 0
3 -86 -137 0
7 -86 -117 0
8 -86 -95 0
8 -86 96 0
3 -86 131 0
5 -85 -104 0
6 -85 -100 0
9 -85 120 0
9 -84 -138 0
7 -84 -134 0
1 -84 -111 0
3 -84 -102 0
2 -84 130 0
8 -83 -140 0
5 -83 100 0
4 -82 -137 0
3 -82 -115 0
2 -82 -113 0
9 -82 -111 0
9 -82 -89 0
6 -82 90 0
5 -82 136 0
8 -81 87 0
4 -81 100 0
7 -80 -136 0
7 -80 -101 0
9 -80 88 0
2 -80 97 0
5 -80 100 0
9 -80 101 0
1 -80 133 0
7 -79 -134 0
6 -79 84 0
9 -79 96 0
5 -79 106 0
8 -78 88 0
4 -78 115 0
1 -77 -111 0
7 -77 -88 0
3 -77 -78 0
7 -76 -80 0
7 -76 106 0
5 -76 123 0
8 -76 137 0
5 -75 -132 0
9 -75 -99 0
3 -75 -86 0
7 -75 98 0
9 -75 109 0
2 -74 -118 0
6 -74 -90 0
6 -74 -75 0
6 -73 -130 0
4 -73 89 0
9 -72 -140 0
4 -72 -138 0
10 -72 -113 0
7 -72 -86 0
4 -72 116 0
5 -72 138 0
7 -71 85 0
5 -71 97 0
2 -71 139 0
2 -70 -126 0
3 -70 -92 0
7 -70 121 0
9 -70 137 0
6 -69 -138 0
7 -69 -113 0
5 -69 -70 0
8 -69 91 0
4 -69 135 0
2 -68 -139 0
3 -68 -108 0
2 -67 -112 0
6 -67 -70 0
2 -67 101 0
4 -67 118 0
3 -66 -133 0
10 -66 -123 0
5 -66 -97 0
8 -66 -96 0
5 -66 95 0
1 -66 130 0
2 -65 103 0
4 -65 114 0
4 -65 139 0
1 -64 117 0
2 -64 127 0
7 -64 131 0
5 -63 -107 0
7 -63 109 0
2 -62 -109 0
7 -62 -88 0
8 -62 93 0
4 -62 125 0
3 -61 85 0
7 -61 87 0
10 -61 89 0
9 -61 124 0
3 -61 134 0
8 -61 138 0
3 -60 -102 0
4 -60 -68 0
10 -59 88 0
4 -59 99 0
9 -59 130 0
1 -58 -99 0
7 -58 -87 0
2 -58 87 0
1 -57 -106 0
2 -57 -84 0
8 -57 -70 0
5 -57 58 0
2 -57 112 0
9 -57 137 0
9 -56 -119 0
5 -56 -108 0
9 -56 110 0
9 -55 -82 0
2 -55 -65 0
4 -55 84 0
7 -55 128 0
3 -54 -138 0
10 -54 -95 0
5 -54 -92 0
6 -54 59 0
3 -53 -120 0
2 -53 -92 0
6 -53 -73 0
2 -53 89 0
4 -53 99 0
3 -53 112 0
4 -53 122 0
7 -52 -113 0
3 -52 -104 0
6 -52 -54 0
6 -52 135 0
3 -51 -118 0
3 -51 -92 0
7 -51 -67 0
3 -51 62 0
4 -51 118 0
5 -50 -74 0
8 -50 -73 0
5 -50 121 0
4 -50 132 0
6 -49 -76 0
9 -49 -68 0
3 -49 -54 0
6 -48 -140 0
1 -48 -130 0
6 -48 -75 0
2 -48 71 0
3 -48 87 0
6 -48 103 0
6 -48 106 0
9 -47 -72 0
9 -47 -53 0
8 -47 71 0
5 -47 73 0
10 -47 77 0
2 -46 -140 0
7 -46 -87 0
3 -46 -70 0
8 -46 -58 0
9 -46 -53 0
9 -46 109 0
4 -45 -82 0
2 -45 -55 0
2 -45 63 0
9 -45 75 0
5 -45 77 0
5 -45 109 0
4 -45 114 0
2 -44 -118 0
8 -44 85 0
7 -43 -97 0
8 -43 46 0
8 -43 75 0
9 -43 83 0
4 -43 111 0
8 -43 120 0
6 -42 48 0
5 -42 49 0
1 -42 81 0
2 -42 91 0
10 -41 -45 0
9 -41 53 0
10 -41 70 0
8 -40 -131 0
4 -40 -114 0
9 -40 -96 0
8 -40 -93 0
10 -40 44 0
3 -40 104 0
6 -40 123 0
9 -40 133 0
1 -39 -65 0
9 -39 -50 0
2 -39 64 0
2 -39 87 0
8 -39 89 0
5 -39 95 0
5 -39 107 0
3 -38 -134 0
7 -38 -75 0
4 -38 -66 0
9 -38 -62 0
5 -38 -58 0
1 -38 59 0
9 -38 77 0
7 -38 85 0
8 -37 -121 0
4 -37 -87 0
2 -37 -53 0
9 -36 -120 0
6 -36 38 0
2 -36 64 0
8 -35 -100 0
6 -35 41 0
8 -35 60 0
1 -35 63 0
5 -35 83 0
7 -35 106 0
1 -34 -104 0
7 -34 -82 0
3 -34 41 0
10 -34 109 0
7 -34 114 0
2 -33 -118 0
1 -33 -86 0
8 -33 35 0
9 -33 63 0
6 -33 73 0
3 -33 96 0
2 -32 -140 0
2 -32 -84 0
6 -32 -60 0
10 -32 -51 0
6 -32 40 0
6 -32 75 0
8 -32 86 0
3 -32 140 0
4 -31 -140 0
3 -31 -32 0
4 -31 53 0
3 -31 87 0
8 -31 114 0
5 -31 121 0
9 -31 130 0
3 -30 -118 0
3 -30 -115 0
10 -30 -109 0
7 -30 -91 0
9 -30 -82 0
10 -30 -54 0
4 -30 -48 0
2 -30 38 0
10 -30 94 0
1 -30 128 0
2 -30 132 0
10 -29 -126 0
8 -29 -120 0
1 -29 -68 0
5 -29 137 0
10 -28 -129 0
2 -28 -115 0
7 -28 -114 0
5 -28 38 0
2 -28 44 0
3 -28 67 0
1 -28 77 0
9 -27 -119 0
5 -27 -91 0
4 -27 -85 0
2 -27 -81 0
8 -27 -79 0
6 -27 43 0
8 -27 47 0
3 -27 83 0
5 -27 120 0
2 -27 122 0
5 -26 -105 0
4 -26 -76 0
8 -26 -71 0
4 -26 74 0
4 -26 106 0
2 -26 107 0
5 -26 112 0
4 -25 -125 0
3 -25 -100 0
7 -25 -65 0
4 -25 -50 0
9 -25 -49 0
7 -25 128 0
8 -24 -125 0
9 -24 -108 0
8 -24 -103 0
5 -24 -86 0
4 -24 -64 0
9 -24 -42 0
6 -24 33 0
4 -24 70 0
8 -24 120 0
1 -23 -121 0
7 -23 -64 0
9 -23 31 0
8 -23 66 0
3 -23 68 0
7 -23 71 0
10 -23 88 0
6 -22 -87 0
8 -22 -70 0
5 -22 -56 0
10 -22 -53 0
6 -22 56 0
8 -22 68 0
4 -22 80 0
8 -22 103 0
3 -22 136 0
7 -21 -130 0
9 -21 -129 0
9 -21 -108 0
9 -21 -94 0
8 -21 -67 0
6 -21 -51 0
7 -21 -22 0
7 -20 -97 0
4 -20 -92 0
2 -20 -68 0
1 -20 -67 0
3 -20 -46 0
7 -20 87 0
4 -20 121 0
10 -19 -79 0
7 -19 71 0
1 -19 91 0
9 -18 -138 0
5 -18 -119 0
3 -18 -90 0
6 -18 -59 0
5 -18 -48 0
9 -18 49 0
4 -18 91 0
9 -18 106 0
8 -18 118 0
9 -17 -70 0
7 -17 -49 0
2 -17 35 0
7 -17 61 0
9 -17 70 0
8 -17 91 0
6 -17 112 0
8 -17 125 0
7 -16 -132 0
4 -16 -121 0
4 -16 -119 0
4 -16 -91 0
2 -16 -74 0
7 -16 -71 0
5 -16 30 0
2 -16 48 0
9 -16 93 0
2 -16 133 0
5 -16 136 0
9 -15 -76 0
8 -15 -57 0
6 -15 41 0
8 -15 132 0
3 -14 -110 0
8 -14 -69 0
4 -14 -39 0
7 -14 20 0
6 -14 75 0
7 -13 -112 0
6 -13 -37 0
5 -13 48 0
6 -13 117 0
3 -13 135 0
6 -13 140 0
3 -12 -33 0
2 -12 20 0
4 -12 29 0
8 -12 51 0
10 -12 113 0
1 -11 -83 0
2 -11 -76 0
4 -11 -28 0
5 -11 87 0
3 -10 -126 0
1 -10 -83 0
9 -10 -63 0
4 -10 -49 0
10 -10 -33 0
10 -10 -11 0
8 -10 33 0
9 -10 52 0
8 -10 90 0
3 -10 118 0
6 -10 119 0
10 -9 -96 0
1 -9 -92 0
9 -9 -87 0
7 -9 -36 0
6 -9 -27 0
6 -9 -17 0
2 -9 -15 0
10 -9 25 0
2 -9 28 0
4 -9 31 0
6 -9 45 0
4 -9 62 0
5 -9 84 0
8 -9 94 0
2 -9 110 0
5 -9 111 0
8 -8 -102 0
3 -8 -100 0
8 -8 -70 0
3 -8 -54 0
5 -8 -43 0
9 -8 -32 0
2 -8 -26 0
8 -8 98 0
8 -8 102 0
1 -7 -28 0
5 -7 19 0
7 -7 56 0
8 -7 104 0
8 -6 -72 0
3 -6 -69 0
8 -6 -39 0
8 -6 -32 0
2 -6 21 0
5 -6 123 0
4 -6 132 0
8 -5 -117 0
6 -5 -77 0
4 -5 -68 0
9 -5 -57 0
9 -5 -56 0
9 -5 -37 0
3 -5 31 0
5 -5 46 0
7 -5 55 0
3 -5 61 0
9 -5 90 0
5 -5 101 0
6 -5 103 0
7 -5 120 0
7 -5 138 0
9 -4 -108 0
6 -4 -71 0
8 -4 49 0
7 -4 96 0
4 -4 98 0
8 -3 -129 0
2 -3 -92 0
10 -3 -47 0
7 -3 16 0
9 -3 107 0
3 -2 -138 0
5 -2 -74 0
7 -2 -64 0
4 -2 -40 0
9 -2 5 0
1 -2 18 0
2 -2 69 0
5 -2 78 0
4 -2 115 0
9 -1 -116 0
4 -1 -97 0
3 -1 -28 0
2 -1 -12 0
8 -1 -11 0
9 -1 9 0
5 -1 13 0
7 -1 25 0
5 -1 60 0
9 -1 110 0
5 1 -116 0
2 1 -72 0
8 1 -61 0
9 1 -48 0
9 1 -28 0
5 1 6 0
3 1 62 0
7 1 95 0
7 1 97 0
3 1 99 0
4 1 103 0
6 1 118 0
5 1 123 0
8 2 -124 0
3 2 -122 0
8 2 -101 0
7 2 -97 0
3 2 -84 0
9 2 -27 0
2 2 3 0
6 2 73 0
8 2 78 0
5 2 100 0
8 2 126 0
9 3 -124 0
3 3 -119 0
7 3 -92 0
4 3 -74 0
9 3 -43 0
2 3 -32 0
3 3 25 0
4 3 33 0
3 3 37 0
1 3 52 0
4 3 57 0
2 3 108 0
6 3 123 0
6 4 -103 0
8 4 -17 0
3 4 15 0
8 4 16 0
2 4 52 0
7 4 71 0
3 4 104 0
9 4 118 0
9 5 -74 0
10 5 -72 0
6 5 22 0
2 5 36 0
9 5 44 0
6 5 123 0
7 6 -117 0
7 6 -96 0
1 6 -91 0
5 6 -77 0
6 6 -36 0
4 6 -14 0
2 6 69 0
9 6 79 0
3 6 134 0
3 7 -133 0
2 7 -109 0
6 7 -45 0
5 7 -8 0
2 7 41 0
9 7 57 0
6 7 121 0
7 8 -11 0
5 8 29 0
4 8 117 0
9 8 120 0
3 9 -107 0
5 9 -104 0
6 9 -97 0
5 9 -79 0
4 9 -47 0
5 9 86 0
4 9 107 0
9 9 109 0
6 10 -123 0
3 10 -115 0
6 10 -34 0
3 10 21 0
9 10 34 0
6 10 38 0
7 10 51 0
5 10 104 0
9 10 134 0
9 11 -132 0
4 11 -123 0
2 11 -31 0
2 11 42 0
5 11 72 0
7 11 116 0
6 11 138 0
6 12 -131 0
6 12 -103 0
2 12 73 0
3 12 113 0
10 12 117 0
5 12 130 0
2 12 137 0
2 13 -137 0
9 13 -134 0
7 13 -109 0
6 13 -108 0
3 13 -101 0
2 13 -80 0
9 13 -44 0
2 13 20 0
8 13 84 0
3 13 96 0
7 13 133 0
10 14 -135 0
1 14 -105 0
3 14 -59 0
7 14 -42 0
5 14 -23 0
2 14 -15 0
6 14 78 0
8 15 -72 0
3 15 27 0
7 15 42 0
3 15 90 0
9 15 101 0
3 16 -122 0
9 16 -99 0
5 16 -35 0
4 16 -25 0
2 16 130 0
5 16 135 0
7 16 137 0
3 17 -94 0
6 17 -67 0
6 17 40 0
9 18 -118 0
2 18 -109 0
8 18 -58 0
2 18 -27 0
2 18 105 0
9 18 110 0
8 18 135 0
3 19 -67 0
6 19 -58 0
8 19 44 0
4 19 49 0
8 19 107 0
5 19 123 0
8 19 135 0
9 20 -74 0
1 20 -40 0
7 20 -38 0
2 20 23 0
7 20 51 0
9 20 52 0
10 21 -81 0
9 21 -54 0
7 21 44 0
5 21 67 0
3 21 134 0
8 21 136 0
8 22 -111 0
9 22 -75 0
2 22 -59 0
4 22 32 0
5 22 88 0
10 22 95 0
5 23 -109 0
2 23 80 0
2 23 88 0
6 24 -106 0
1 24 -81 0
9 24 -52 0
8 24 -35 0
6 24 -34 0
7 24 45 0
2 24 116 0
5 24 139 0
2 25 46 0
9 25 52 0
4 25 59 0
2 25 60 0
5 25 61 0
5 25 66 0
8 25 77 0
4 25 88 0
5 25 97 0
7 25 121 0
2 26 -69 0
8 26 -49 0
9 26 68 0
9 26 84 0
7 27 -79 0
8 27 -51 0
10 27 -28 0
10 27 60 0
2 27 83 0
9 27 131 0
5 28 -128 0
4 28 -124 0
1 28 -111 0
10 28 -92 0
4 28 -62 0
9 28 -35 0
8 28 -30 0
10 28 43 0
6 28 55 0
8 28 71 0
4 28 78 0
7 28 93 0
7 28 116 0
7 28 120 0
8 28 134 0
2 28 136 0
1 29 -85 0
7 29 31 0
5 29 51 0
5 29 75 0
4 29 79 0
6 29 95 0
3 29 130 0
3 30 -130 0
5 30 -112 0
9 30 -91 0
10 30 -86 0
5 30 -84 0
9 30 -68 0
2 30 -52 0
4 30 -48 0
4 30 115 0
5 31 -122 0
4 31 -116 0
4 31 -112 0
8 31 -109 0
3 31 -59 0
2 31 -57 0
8 31 -51 0
8 31 -46 0
9 31 -45 0
2 31 -43 0
6 31 83 0
6 31 104 0
8 31 123 0
4 32 -113 0
7 32 -110 0
8 32 -99 0
10 32 -54 0
3 32 64 0
3 32 82 0
4 32 106 0
8 32 122 0
6 33 -139 0
6 33 -50 0
3 33 -39 0
5 34 -138 0
5 34 -127 0
6 34 -84 0
3 34 38 0
7 34 59 0
9 34 93 0
6 35 -122 0
2 35 -120 0
3 35 -80 0
9 35 -72 0
9 35 44 0
6 35 72 0
9 35 111 0
7 35 135 0
4 36 59 0
8 36 95 0
8 36 105 0
9 36 124 0
4 36 126 0
6 36 130 0
3 37 -42 0
2 37 76 0
5 37 112 0
2 37 123 0
3 38 84 0
7 38 116 0
5 38 123 0
10 39 -136 0
3 39 -118 0
9 39 -101 0
2 39 -87 0
7 39 -65 0
5 39 -63 0
8 39 44 0
9 39 63 0
1 39 87 0
7 40 -47 0
5 40 79 0
2 40 133 0
9 41 -138 0
4 41 -136 0
1 41 -105 0
5 41 -82 0
3 41 -54 0
8 41 108 0
8 41 120 0
1 41 130 0
6 42 -132 0
7 42 -109 0
5 42 -64 0
2 42 -63 0
8 42 87 0
5 42 104 0
6 42 135 0
10 43 85 0
7 43 99 0
3 43 121 0
4 44 -47 0
7 44 45 0
5 44 61 0
4 44 111 0
9 44 113 0
1 44 118 0
7 44 124 0
6 44 134 0
9 45 -83 0
8 45 -68 0
3 45 -63 0
4 45 -62 0
9 45 48 0
2 45 82 0
7 45 92 0
10 45 96 0
6 45 134 0
9 46 -112 0
7 46 -101 0
4 46 75 0
10 46 77 0
3 46 106 0
10 46 109 0
5 46 118 0
4 47 -129 0
8 47 -113 0
9 47 -83 0
9 47 -76 0
8 47 -75 0
6 47 -58 0
2 47 76 0
2 47 91 0
4 47 100 0
5 48 -138 0
5 48 -128 0
2 48 -110 0
6 48 -105 0
2 48 58 0
7 48 135 0
5 49 -77 0
9 49 -54 0
9 49 55 0
9 49 104 0
8 49 113 0
1 49 128 0
6 50 -127 0
8 50 -114 0
7 50 -89 0
5 50 81 0
5 50 105 0
10 51 -92 0
5 51 -54 0
7 51 138 0
9 51 139 0
9 52 -91 0
1 52 -65 0
7 52 98 0
7 52 107 0
9 53 -127 0
5 53 -112 0
4 53 -92 0
1 53 -70 0
6 53 59 0
6 53 63 0
6 53 111 0
10 53 114 0
7 53 123 0
1 54 56 0
2 54 58 0
5 54 71 0
5 55 -90 0
1 55 -81 0
4 55 -67 0
4 55 131 0
8 56 -115 0
5 56 -103 0
9 56 -102 0
6 56 -87 0
1 56 -77 0
4 56 58 0
1 56 82 0
10 56 87 0
8 56 127 0
7 57 -138 0
9 57 -130 0
7 57 -82 0
8 57 -69 0
7 57 -67 0
4 58 -109 0
7 58 -88 0
2 58 77 0
7 58 78 0
7 58 82 0
7 58 107 0
3 58 133 0
3 59 -132 0
6 59 -105 0
10 59 -90 0
3 59 -89 0
7 59 -72 0
4 59 109 0
7 60 -138 0
7 60 -132 0
8 60 88 0
1 60 129 0
6 61 -131 0
2 61 -101 0
9 61 62 0
2 61 63 0
3 61 66 0
3 61 80 0
2 61 122 0
2 61 128 0
10 62 -133 0
8 62 -105 0
2 62 -95 0
6 62 91 0
6 62 107 0
7 63 -112 0
10 63 -88 0
3 63 65 0
8 63 72 0
6 63 101 0
9 63 123 0
5 64 -125 0
8 64 95 0
2 64 118 0
1 64 126 0
8 65 -122 0
3 65 -105 0
8 65 -97 0
2 65 66 0
10 65 83 0
5 65 108 0
9 65 126 0
10 66 -110 0
10 66 -97 0
1 66 -85 0
9 66 71 0
2 66 79 0
3 66 82 0
1 67 -126 0
2 67 -118 0
4 67 -109 0
1 67 -76 0
9 67 105 0
5 67 111 0
7 68 -118 0
5 68 -76 0
2 69 -118 0
6 69 -71 0
7 69 84 0
9 70 -125 0
2 70 -109 0
6 70 138 0
4 70 140 0
10 71 82 0
6 71 95 0
4 71 116 0
8 71 120 0
9 71 139 0
2 72 75 0
9 72 90 0
8 72 97 0
6 73 -128 0
8 73 -103 0
8 73 -83 0
6 73 84 0
8 73 128 0
7 73 140 0
7 74 99 0
10 74 121 0
7 74 139 0
8 75 -133 0
4 75 -120 0
7 76 -129 0
7 76 -97 0
8 76 77 0
4 76 80 0
2 77 -138 0
9 77 -134 0
9 77 -113 0
8 77 -96 0
8 77 -91 0
1 77 83 0
4 77 96 0
2 77 104 0
1 77 134 0
9 78 -99 0
5 78 -85 0
8 78 104 0
8 78 131 0
6 79 -129 0
7 79 -123 0
6 79 -120 0
2 79 -118 0
5 79 -117 0
4 79 -109 0
7 79 -98 0
3 79 84 0
10 80 -113 0
4 80 -112 0
3 80 90 0
7 80 112 0
2 81 -111 0
6 81 -103 0
4 81 -85 0
8 81 135 0
4 82 -103 0
7 82 118 0
9 82 121 0
2 82 130 0
5 82 137 0
7 83 -128 0
9 83 -105 0
5 83 -90 0
1 83 -84 0
1 84 -129 0
6 84 -126 0
9 84 -115 0
5 84 -85 0
4 84 93 0
7 84 137 0
1 85 -140 0
10 85 -121 0
3 85 -116 0
3 85 97 0
5 85 108 0
6 85 113 0
9 85 116 0
7 85 132 0
6 86 -140 0
3 86 -119 0
9 86 -96 0
3 86 -90 0
3 86 90 0
5 86 120 0
6 87 122 0
1 87 125 0
8 87 134 0
2 88 -123 0
9 88 -104 0
9 88 -96 0
7 88 -92 0
7 88 126 0
8 89 90 0
2 89 101 0
7 89 110 0
8 89 120 0
7 90 98 0
6 90 106 0
4 90 124 0
9 90 131 0
2 91 -130 0
4 91 -120 0
9 91 -110 0
4 92 -132 0
6 92 -114 0
3 92 -113 0
9 92 119 0
5 93 -138 0
9 93 99 0
5 93 105 0
6 94 -132 0
8 94 -120 0
7 94 -118 0
8 94 -98 0
3 95 -127 0
3 95 109 0
9 95 131 0
9 96 -119 0
4 96 -97 0
8 96 103 0
8 97 -130 0
1 97 101 0
5 98 -111 0
7 98 120 0
2 99 -128 0
1 99 112 0
5 99 133 0
8 99 139 0
6 100 -115 0
8 100 -108 0
7 100 103 0
7 101 -109 0
2 101 111 0
6 101 139 0
1 102 -130 0
7 102 117 0
8 102 138 0
10 102 140 0
1 103 138 0
7 105 108 0
5 106 -127 0
6 106 110 0
6 107 -136 0
2 107 -133 0
5 107 -129 0
7 107 -118 0
4 107 -116 0
4 107 132 0
7 108 -132 0
7 108 124 0
1 109 -136 0
5 109 -131 0
7 110 136 0
5 111 -127 0
2 111 119 0
8 112 123 0
5 114 -128 0
6 115 -140 0
6 116 125 0
1 117 126 0
4 119 -139 0
3 119 140 0
7 120 -124 0
5 121 -140 0
8 121 -139 0
8 121 -130 0
2 121 -128 0
6 123 -132 0
7 123 -129 0
2 124 -137 0
4 124 -133 0
2 124 -127 0
8 128 136 0
8 129 -131 0
3 133 137 0
3 135 138 0
